p tw 262 316
1 2
2 113
3 14
3 162
4 5
4 11
5 6
6 7
7 8
8 9
9 10
9 11
10 181
11 12
12 13
13 171
14 25
15 16
16 17
17 18
18 19
18 28
19 20
20 21
21 22
22 23
23 24
24 26
25 36
25 231
26 27
27 28
27 30
28 29
29 181
30 31
31 32
32 171
33 34
34 35
35 37
36 47
37 38
37 46
38 39
39 40
40 41
41 42
42 43
43 44
44 45
45 46
45 49
46 48
47 58
47 235
48 181
49 50
50 51
51 171
52 53
53 54
54 55
55 56
56 57
57 59
58 69
59 60
60 61
60 68
61 62
62 63
63 64
64 65
64 66
65 66
66 67
67 181
68 70
69 80
69 240
70 181
71 72
72 73
73 74
74 75
75 76
76 77
77 78
78 79
78 87
79 81
80 91
81 82
82 83
83 84
83 85
84 85
85 86
86 181
87 88
88 181
89 90
90 92
91 102
91 15
92 93
93 94
93 96
94 95
95 171
96 97
97 98
98 99
99 100
100 101
101 103
101 104
102 114
103 181
104 105
105 106
106 107
107 108
108 109
109 110
109 115
110 111
111 112
112 115
112 96
113 186
114 125
114 33
115 116
116 181
117 118
118 119
119 120
120 121
121 122
121 124
122 123
123 124
124 126
125 136
126 127
127 128
128 129
128 131
129 130
130 133
131 132
132 133
133 134
134 135
135 137
136 147
136 89
137 138
138 139
139 140
140 141
141 142
142 143
143 144
143 160
144 145
144 150
145 146
146 148
147 158
148 149
149 150
149 155
150 151
151 152
152 153
153 154
153 155
154 181
155 156
156 157
157 159
158 169
158 171
159 141
160 161
161 181
162 163
163 181
164 165
165 166
166 167
167 168
168 170
169 180
170 181
171 172
172 173
173 186
174 175
175 176
176 177
177 178
178 179
179 181
180 183
180 249
181 182
183 184
184 185
184 171
185 187
186 197
187 188
187 117
188 189
189 190
189 117
190 191
191 192
191 52
192 193
193 194
193 52
194 195
195 196
195 52
196 198
197 208
197 174
198 199
198 52
199 200
200 201
200 52
201 202
202 203
202 52
203 204
204 205
204 52
205 206
206 207
206 52
207 209
208 219
209 210
209 52
210 211
211 212
211 71
212 213
213 214
213 71
214 215
215 216
215 71
216 217
217 218
217 71
218 220
219 230
220 221
220 71
221 222
222 223
222 71
223 224
224 225
224 71
225 226
226 227
226 71
227 228
228 229
228 71
229 164
230 241
231 232
232 233
233 234
233 171
234 181
235 236
236 237
237 238
238 239
238 171
239 181
240 242
241 252
242 243
243 244
244 245
244 246
245 181
246 247
247 248
248 171
249 250
250 251
251 253
252 3
253 254
254 255
255 256
256 257
256 258
257 181
258 259
259 260
260 261
261 262
262 4
